(declare-const x0 Bool)
(declare-const x1 Bool)
(declare-const x2 Bool)
(declare-const x3 Bool)
(declare-const x4 Bool)
(declare-const x5 Bool)
(declare-const x6 Bool)
(declare-const x7 Bool)
(declare-const x8 Bool)
(declare-const x9 Bool)
(declare-const x10 Bool)
(declare-const x11 Bool)
(declare-const x12 Bool)
(declare-const x13 Bool)
(declare-const x14 Bool)
(declare-const x15 Bool)
(declare-const x16 Bool)
(declare-const x17 Bool)
(declare-const x18 Bool)
(declare-const x19 Bool)
(assert (and (or x15 (= false x13)) false))
(assert (and (or (or x19 x7) (and x11 (and x11 false))) (and (= (or x10 false) (= x13 x18)) (and x15 (and (or x8 false) (and true true))))))
(assert (or (= (or x8 true) (or (and true x19) x18)) (and (or (and x8 false) true) (or (= true x7) (= true true)))))
(assert x18)
(assert (= false (and x1 true)))
(assert (or true false))
(assert (and (and (or (= false (= x14 false)) (= x16 (and x12 true))) (= (= false x13) (= false x11))) x11))
(assert (or (or (and (= true false) (= x9 x6)) true) true))
(assert (or false (or x9 x19)))
(assert (and x6 x15))
(check-sat)
